Maximize
  1 h_c + 1 cmusa_c
Subject To
  1 h_c + 1 cmusa_c - 1 o2_c - 1 3hanthrn_c = 2000
Bounds
  h_c <= 1000
  cmusa_c <= 300
  o2_c <= 430
  3hanthrn_c <= 460
Integers
  h_c cmusa_c o2_c 3hanthrn_c
End
